81
1 50 8
2 0 20
3 3 7
4 25 20
5 28 41
6 5 2
7 26 0
8 27 13
9 28 11
10 12 4
11 27 40
12 9 3
13 15 21
14 22 39
15 11 46
16 14 33
17 34 1
18 18 1
19 47 26
20 24 47
21 17 11
22 13 48
23 24 4
24 20 42
25 0 13
26 28 7
27 4 21
28 30 9
29 9 23
30 50 5
31 10 32
32 50 31
33 3 44
34 37 26
35 39 42
36 46 27
37 22 39
38 35 29
39 29 6
40 47 2
41 10 50
42 41 31
43 42 45
44 8 14
45 21 30
46 18 13
47 7 7
48 48 3
49 20 14
50 18 50
51 47 34
52 48 0
53 5 45
54 0 32
55 12 18
56 12 43
57 22 31
58 41 36
59 40 29
60 45 48
61 20 6
62 47 38
63 2 16
64 4 26
65 17 12
66 14 39
67 39 38
68 8 48
69 6 24
70 18 9
71 40 46
72 17 10
73 1 25
74 34 49
75 42 3
76 10 21
77 48 17
78 22 36
79 6 6
80 27 9
81 31 17
